celar_50_8_10_5_0.800000_8 100 52 260 710001
40 48 50 42 42 45 42 43 47 50 49 49 44 45 48 45 52 44 52 40 51 50 43 47 48 51 41 46 51 44 46 46 43 47 40 46 42 49 41 42 40 41 52 44 52 44 42 42 52 48 49 52 48 52 51 47 40 51 52 41 45 50 50 43 44 44 41 46 48 46 43 52 52 41 49 50 41 40 42 45 51 47 40 44 52 47 41 51 41 48 52 43 52 46 41 40 40 50 40 40
2 0 1 10000 57
0 13 0
1 15 0
2 17 0
5 19 0
6 20 0
7 21 0
8 22 0
9 0 0
9 23 0
10 24 0
11 1 0
11 25 0
12 3 0
12 27 0
13 4 0
13 28 0
14 5 0
14 29 0
15 7 0
15 31 0
16 8 0
16 32 0
17 9 0
17 33 0
18 10 0
18 34 0
19 11 0
19 35 0
20 12 0
20 36 0
21 14 0
21 37 0
22 15 0
22 38 0
23 16 0
23 39 0
24 17 0
24 40 0
25 41 0
26 18 0
26 42 0
27 19 0
27 44 0
28 20 0
28 45 0
29 22 0
29 47 0
30 23 0
31 24 0
32 25 0
33 28 0
34 29 0
35 30 0
36 31 0
37 32 0
38 33 0
39 35 0
2 2 3 10000 60
1 12 0
2 13 0
3 14 0
4 15 0
5 16 0
6 17 0
7 18 0
8 19 0
10 20 0
11 21 0
12 22 0
13 0 0
14 1 0
14 23 0
15 2 0
15 24 0
16 3 0
16 25 0
17 4 0
17 26 0
18 5 0
18 27 0
19 6 0
20 7 0
20 28 0
21 29 0
22 9 0
23 10 0
23 30 0
24 11 0
24 31 0
25 12 0
25 33 0
26 13 0
26 34 0
27 14 0
27 35 0
28 15 0
28 36 0
29 16 0
30 17 0
31 18 0
31 37 0
32 19 0
32 38 0
34 20 0
34 39 0
35 21 0
35 40 0
36 22 0
36 41 0
38 23 0
39 24 0
40 25 0
41 26 0
42 27 0
44 28 0
46 29 0
48 30 0
49 31 0
2 4 5 10000 57
0 12 0
1 13 0
2 14 0
3 15 0
4 18 0
5 20 0
6 21 0
7 23 0
8 24 0
9 0 0
9 26 0
10 1 0
10 27 0
11 2 0
11 28 0
12 3 0
12 29 0
13 4 0
13 30 0
14 5 0
14 31 0
15 6 0
15 32 0
16 8 0
16 34 0
17 9 0
18 10 0
19 11 0
19 35 0
20 12 0
20 36 0
21 13 0
21 37 0
22 14 0
23 15 0
24 16 0
24 38 0
25 18 0
26 19 0
26 40 0
27 20 0
27 41 0
28 21 0
28 42 0
29 22 0
29 43 0
30 23 0
31 24 0
31 44 0
32 25 0
33 28 0
34 29 0
35 30 0
36 31 0
37 32 0
38 34 0
41 35 0
2 6 7 10000 52
0 11 0
1 12 0
3 14 0
4 15 0
7 16 0
8 17 0
9 18 0
11 0 0
11 19 0
12 1 0
13 2 0
13 20 0
14 3 0
14 21 0
15 5 0
15 23 0
16 7 0
16 25 0
17 8 0
17 26 0
18 9 0
18 27 0
19 10 0
19 28 0
20 30 0
21 12 0
21 32 0
23 33 0
24 13 0
24 34 0
25 14 0
25 35 0
26 15 0
26 36 0
27 38 0
28 16 0
28 39 0
29 17 0
29 40 0
30 18 0
30 41 0
31 42 0
32 19 0
33 20 0
34 21 0
35 24 0
36 25 0
37 26 0
38 27 0
39 28 0
40 29 0
41 30 0
2 8 9 10000 70
0 13 0
1 14 0
2 15 0
3 17 0
4 18 0
5 19 0
6 21 0
7 22 0
8 23 0
9 24 0
10 25 0
11 0 0
11 26 0
12 1 0
12 27 0
13 2 0
13 28 0
14 3 0
14 29 0
15 4 0
15 30 0
16 6 0
16 32 0
17 7 0
17 33 0
18 8 0
18 34 0
19 9 0
19 35 0
20 10 0
20 36 0
21 11 0
21 37 0
22 12 0
22 38 0
23 13 0
23 39 0
24 14 0
24 40 0
25 15 0
26 16 0
26 41 0
27 17 0
27 42 0
28 18 0
29 19 0
29 43 0
30 20 0
30 44 0
31 21 0
31 45 0
32 22 0
32 46 0
33 23 0
33 47 0
34 24 0
34 48 0
35 25 0
35 49 0
36 27 0
37 28 0
38 29 0
39 30 0
40 31 0
41 32 0
42 33 0
43 34 0
44 35 0
45 36 0
46 37 0
2 10 11 10000 70
0 12 0
1 13 0
2 14 0
3 15 0
4 16 0
5 17 0
6 18 0
7 19 0
8 20 0
9 21 0
10 22 0
11 23 0
12 24 0
13 0 0
13 25 0
14 2 0
15 3 0
15 27 0
16 4 0
16 28 0
17 5 0
17 29 0
18 6 0
18 30 0
19 31 0
20 7 0
20 32 0
21 8 0
21 33 0
22 9 0
22 34 0
23 10 0
23 35 0
24 11 0
24 36 0
25 12 0
25 37 0
26 13 0
26 38 0
27 14 0
27 39 0
28 15 0
28 40 0
29 16 0
29 41 0
30 17 0
30 42 0
31 18 0
31 43 0
32 19 0
32 44 0
33 20 0
33 45 0
34 21 0
35 22 0
35 46 0
36 23 0
36 47 0
37 24 0
37 48 0
38 25 0
39 26 0
41 28 0
42 29 0
43 31 0
44 32 0
45 33 0
46 34 0
47 35 0
48 36 0
2 12 13 10000 54
0 12 0
1 13 0
2 14 0
3 15 0
4 16 0
5 18 0
7 19 0
8 20 0
9 22 0
10 0 0
11 1 0
12 2 0
12 23 0
13 3 0
13 24 0
14 4 0
14 25 0
15 5 0
16 6 0
17 8 0
17 27 0
18 28 0
19 29 0
20 9 0
20 30 0
21 10 0
21 31 0
22 11 0
22 32 0
23 12 0
23 33 0
24 13 0
24 34 0
25 14 0
25 35 0
26 15 0
26 36 0
27 16 0
27 37 0
28 17 0
28 38 0
29 40 0
30 20 0
30 42 0
31 21 0
31 43 0
34 23 0
35 24 0
38 26 0
39 27 0
40 28 0
41 29 0
42 30 0
43 31 0
2 14 15 10000 62
0 13 0
1 14 0
3 15 0
4 16 0
5 17 0
6 18 0
7 19 0
9 20 0
10 21 0
11 0 0
11 23 0
12 1 0
12 24 0
13 2 0
13 25 0
14 4 0
14 27 0
15 28 0
16 5 0
16 29 0
17 6 0
17 30 0
18 7 0
19 8 0
19 31 0
20 9 0
20 32 0
21 10 0
22 11 0
22 33 0
23 12 0
23 34 0
24 13 0
24 35 0
25 14 0
25 36 0
26 37 0
27 15 0
28 16 0
28 38 0
29 17 0
29 39 0
30 18 0
30 40 0
31 19 0
32 41 0
33 20 0
33 42 0
34 21 0
34 43 0
35 22 0
35 44 0
36 23 0
37 24 0
38 26 0
39 27 0
40 28 0
41 29 0
42 30 0
44 31 0
45 32 0
47 33 0
2 16 17 10000 67
0 11 0
1 12 0
2 13 0
3 14 0
4 15 0
5 16 0
6 17 0
8 18 0
9 19 0
10 20 0
11 21 0
12 22 0
13 23 0
14 0 0
14 24 0
15 1 0
15 25 0
16 26 0
17 2 0
17 27 0
18 3 0
18 28 0
19 4 0
20 5 0
20 29 0
21 6 0
22 7 0
22 30 0
23 8 0
23 31 0
24 9 0
24 32 0
25 10 0
25 33 0
26 11 0
27 12 0
27 34 0
28 13 0
28 35 0
29 14 0
29 36 0
30 15 0
30 37 0
31 16 0
31 38 0
32 17 0
32 39 0
33 40 0
34 18 0
34 41 0
35 19 0
35 42 0
36 20 0
37 21 0
38 22 0
38 43 0
39 23 0
40 24 0
41 25 0
42 26 0
43 27 0
44 28 0
46 29 0
48 30 0
49 31 0
50 32 0
51 33 0
2 18 19 10000 59
0 10 0
1 11 0
2 12 0
4 13 0
5 14 0
6 15 0
9 16 0
11 17 0
12 18 0
13 0 0
14 1 0
14 19 0
15 2 0
15 20 0
16 3 0
16 21 0
17 22 0
18 4 0
18 23 0
20 5 0
20 24 0
21 6 0
21 25 0
22 7 0
22 26 0
23 27 0
24 8 0
24 28 0
25 9 0
26 10 0
26 29 0
27 11 0
27 30 0
28 12 0
29 31 0
30 13 0
30 32 0
31 14 0
31 33 0
32 15 0
32 34 0
33 35 0
34 36 0
35 16 0
36 37 0
37 17 0
37 38 0
38 18 0
38 39 0
40 19 0
41 20 0
42 21 0
43 22 0
44 23 0
46 24 0
47 25 0
48 26 0
49 27 0
50 28 0
2 20 21 10000 75
0 12 0
1 13 0
2 14 0
3 15 0
4 16 0
5 17 0
6 18 0
7 19 0
8 20 0
9 21 0
10 22 0
11 23 0
12 24 0
13 25 0
14 0 0
14 26 0
15 1 0
15 27 0
16 2 0
16 28 0
17 3 0
17 29 0
18 4 0
18 30 0
19 5 0
19 31 0
20 6 0
20 32 0
21 7 0
21 33 0
22 8 0
22 34 0
23 9 0
23 35 0
24 10 0
24 36 0
25 11 0
25 37 0
26 12 0
26 38 0
27 13 0
27 39 0
28 14 0
28 40 0
29 15 0
29 41 0
30 16 0
30 42 0
31 17 0
32 18 0
32 43 0
33 19 0
33 44 0
34 20 0
34 45 0
35 21 0
35 46 0
36 22 0
36 47 0
37 23 0
37 48 0
38 24 0
38 49 0
39 25 0
40 26 0
41 27 0
42 28 0
43 29 0
44 30 0
45 31 0
46 32 0
47 33 0
48 34 0
49 36 0
50 37 0
2 22 23 10000 57
0 10 0
1 11 0
2 12 0
3 14 0
4 15 0
5 16 0
6 17 0
7 18 0
8 20 0
9 21 0
10 22 0
11 0 0
11 23 0
12 1 0
12 24 0
13 3 0
14 27 0
15 28 0
16 4 0
16 29 0
17 5 0
17 30 0
18 8 0
19 9 0
19 33 0
20 11 0
20 35 0
21 12 0
21 36 0
22 13 0
22 37 0
23 14 0
23 38 0
24 15 0
24 39 0
25 16 0
25 40 0
26 17 0
26 41 0
27 19 0
27 43 0
28 20 0
28 44 0
29 21 0
29 45 0
30 22 0
30 46 0
31 23 0
32 24 0
33 25 0
35 26 0
36 27 0
37 28 0
38 30 0
39 31 0
40 32 0
42 33 0
2 24 25 10000 70
0 13 0
1 14 0
2 15 0
3 16 0
4 17 0
5 18 0
6 19 0
7 20 0
8 21 0
9 22 0
10 23 0
11 24 0
12 25 0
13 1 0
13 27 0
14 2 0
14 28 0
15 3 0
15 29 0
16 4 0
16 30 0
17 5 0
17 31 0
18 7 0
18 33 0
19 8 0
19 34 0
20 9 0
20 35 0
21 10 0
21 36 0
22 11 0
22 37 0
23 12 0
23 38 0
24 13 0
24 39 0
25 14 0
25 40 0
26 15 0
26 41 0
27 16 0
27 42 0
28 17 0
28 43 0
29 18 0
29 44 0
30 19 0
31 21 0
31 46 0
32 22 0
32 47 0
33 23 0
33 48 0
34 24 0
34 49 0
35 25 0
35 50 0
36 26 0
37 27 0
38 28 0
39 29 0
40 30 0
41 31 0
42 32 0
43 33 0
44 35 0
45 36 0
46 37 0
47 38 0
2 26 27 10000 51
0 11 0
2 12 0
4 13 0
5 14 0
6 16 0
7 19 0
9 20 0
10 0 0
10 21 0
11 1 0
11 22 0
12 23 0
13 3 0
13 25 0
14 4 0
14 26 0
15 6 0
15 28 0
16 7 0
16 29 0
17 8 0
18 32 0
19 11 0
19 33 0
20 34 0
21 12 0
21 35 0
22 36 0
23 13 0
23 37 0
24 15 0
24 39 0
25 16 0
25 40 0
26 18 0
26 42 0
27 19 0
27 43 0
28 44 0
29 20 0
29 45 0
30 21 0
31 22 0
32 23 0
33 24 0
34 25 0
35 26 0
36 27 0
37 29 0
39 30 0
40 31 0
2 28 29 10000 64
0 10 0
1 11 0
2 12 0
3 13 0
4 14 0
6 15 0
8 16 0
9 17 0
10 18 0
12 19 0
13 0 0
13 20 0
14 21 0
15 1 0
15 22 0
16 2 0
16 23 0
17 3 0
17 24 0
18 4 0
18 25 0
19 26 0
20 5 0
20 27 0
21 6 0
21 28 0
23 7 0
23 29 0
24 9 0
24 31 0
25 10 0
26 11 0
26 32 0
27 12 0
27 33 0
28 13 0
28 34 0
29 14 0
29 35 0
30 36 0
31 15 0
31 37 0
32 38 0
33 16 0
33 39 0
34 17 0
34 40 0
35 18 0
35 41 0
36 42 0
37 19 0
37 43 0
38 20 0
39 21 0
40 22 0
41 23 0
42 24 0
43 25 0
44 26 0
45 27 0
46 28 0
48 29 0
49 30 0
50 31 0
2 30 31 10000 62
0 13 0
1 16 0
2 17 0
3 18 0
4 19 0
5 20 0
6 21 0
8 22 0
9 0 0
10 1 0
11 2 0
11 23 0
12 3 0
12 24 0
13 4 0
13 25 0
14 5 0
14 26 0
15 6 0
15 27 0
16 7 0
17 8 0
17 28 0
18 9 0
18 29 0
19 10 0
19 31 0
20 11 0
20 32 0
21 12 0
21 33 0
22 34 0
23 13 0
23 35 0
24 14 0
24 36 0
25 15 0
25 37 0
26 16 0
26 38 0
27 17 0
27 39 0
28 18 0
28 40 0
29 19 0
29 41 0
30 20 0
30 42 0
31 21 0
31 43 0
32 44 0
33 22 0
33 45 0
36 23 0
37 24 0
38 25 0
39 26 0
40 27 0
42 28 0
43 29 0
44 31 0
45 32 0
2 32 33 10000 60
0 11 0
1 12 0
2 13 0
3 14 0
4 15 0
5 16 0
6 17 0
7 18 0
8 19 0
9 20 0
10 22 0
11 0 0
11 24 0
12 1 0
12 25 0
13 2 0
13 26 0
14 3 0
14 27 0
15 4 0
15 28 0
16 5 0
17 29 0
18 7 0
18 31 0
19 8 0
19 32 0
20 9 0
20 33 0
21 35 0
22 11 0
22 36 0
23 12 0
23 37 0
24 13 0
25 15 0
25 39 0
26 17 0
27 18 0
27 41 0
28 19 0
28 42 0
29 20 0
29 43 0
30 21 0
30 44 0
31 22 0
31 45 0
32 23 0
32 46 0
33 24 0
34 26 0
35 27 0
36 28 0
37 29 0
38 30 0
39 31 0
40 32 0
41 33 0
42 34 0
2 34 35 10000 55
1 12 0
2 13 0
3 14 0
4 18 0
5 19 0
7 22 0
8 0 0
8 23 0
9 1 0
9 24 0
10 2 0
10 25 0
11 26 0
12 4 0
12 28 0
13 5 0
13 29 0
14 7 0
14 31 0
15 8 0
15 32 0
16 9 0
16 33 0
17 10 0
17 34 0
18 11 0
19 12 0
20 14 0
21 15 0
21 37 0
22 16 0
22 38 0
23 17 0
23 39 0
24 18 0
24 40 0
25 19 0
25 41 0
26 20 0
26 42 0
27 43 0
28 21 0
28 44 0
29 22 0
29 45 0
30 23 0
31 24 0
32 26 0
33 27 0
34 28 0
35 29 0
36 31 0
37 32 0
38 33 0
39 34 0
2 36 37 10000 58
0 12 0
1 13 0
2 14 0
3 15 0
5 16 0
6 17 0
7 18 0
8 19 0
9 20 0
10 21 0
11 22 0
12 0 0
12 24 0
13 1 0
14 2 0
14 25 0
15 3 0
15 26 0
16 5 0
16 28 0
17 6 0
17 29 0
18 7 0
18 30 0
19 8 0
19 31 0
20 9 0
20 32 0
21 33 0
22 10 0
22 34 0
23 12 0
23 36 0
24 14 0
24 38 0
25 15 0
25 39 0
26 40 0
27 16 0
27 41 0
28 17 0
28 42 0
29 19 0
29 44 0
30 20 0
30 45 0
31 22 0
31 47 0
32 23 0
32 48 0
33 24 0
35 25 0
36 27 0
37 28 0
38 30 0
39 31 0
40 32 0
41 35 0
2 38 39 10000 47
0 11 0
3 15 0
4 16 0
5 17 0
6 19 0
7 20 0
8 0 0
8 21 0
10 1 0
10 22 0
11 2 0
12 3 0
12 23 0
14 4 0
14 24 0
15 6 0
15 26 0
16 7 0
16 27 0
17 8 0
18 9 0
18 28 0
19 10 0
19 29 0
20 11 0
21 30 0
22 12 0
22 31 0
23 13 0
23 32 0
24 14 0
24 33 0
25 34 0
26 17 0
26 37 0
27 38 0
28 18 0
28 39 0
29 19 0
29 40 0
30 21 0
32 22 0
34 23 0
36 24 0
37 27 0
39 28 0
40 29 0
2 40 41 10000 47
0 10 0
1 12 0
2 14 0
4 15 0
6 16 0
8 17 0
9 18 0
10 19 0
12 2 0
12 22 0
13 3 0
14 4 0
14 23 0
15 5 0
15 25 0
16 6 0
16 26 0
17 7 0
17 27 0
18 28 0
19 8 0
19 29 0
20 9 0
20 30 0
21 10 0
21 31 0
22 11 0
23 12 0
24 13 0
24 32 0
25 14 0
25 33 0
26 34 0
27 16 0
28 37 0
29 17 0
29 38 0
30 18 0
30 39 0
31 19 0
31 40 0
33 20 0
34 22 0
36 24 0
37 26 0
38 27 0
39 28 0
2 42 43 10000 65
2 11 0
3 12 0
4 13 0
5 14 0
6 15 0
7 16 0
8 17 0
9 18 0
10 19 0
12 20 0
13 21 0
14 0 0
14 22 0
15 1 0
15 23 0
16 2 0
16 24 0
17 3 0
17 25 0
19 4 0
19 26 0
20 5 0
20 27 0
21 6 0
21 28 0
22 7 0
23 8 0
23 29 0
24 9 0
24 30 0
25 10 0
25 31 0
26 32 0
27 33 0
28 11 0
28 34 0
29 12 0
29 35 0
30 13 0
30 36 0
31 14 0
31 37 0
32 15 0
32 38 0
33 16 0
33 39 0
34 17 0
34 40 0
35 18 0
35 41 0
36 19 0
36 42 0
38 20 0
38 43 0
39 21 0
40 22 0
41 23 0
42 24 0
43 25 0
45 26 0
46 27 0
47 28 0
49 29 0
50 30 0
51 31 0
2 44 45 10000 67
0 11 0
1 12 0
2 13 0
3 14 0
4 15 0
5 16 0
7 17 0
8 18 0
9 19 0
10 20 0
11 21 0
12 22 0
13 0 0
13 23 0
14 1 0
15 2 0
15 24 0
16 3 0
16 25 0
17 4 0
17 26 0
18 27 0
19 5 0
19 28 0
20 6 0
20 29 0
21 30 0
22 7 0
22 31 0
23 8 0
23 32 0
24 9 0
24 33 0
25 10 0
26 11 0
26 34 0
27 12 0
27 35 0
28 13 0
28 36 0
29 14 0
29 37 0
30 15 0
30 38 0
31 16 0
32 39 0
33 17 0
33 40 0
34 18 0
35 19 0
35 41 0
36 20 0
37 21 0
37 42 0
38 22 0
38 43 0
39 23 0
41 24 0
42 25 0
43 26 0
44 27 0
45 28 0
46 29 0
47 30 0
48 31 0
49 32 0
50 33 0
2 46 47 10000 52
0 10 0
1 11 0
2 12 0
3 13 0
4 14 0
5 15 0
6 16 0
8 19 0
9 20 0
10 0 0
11 1 0
11 21 0
12 22 0
13 2 0
13 24 0
14 25 0
15 4 0
15 27 0
16 5 0
16 28 0
17 6 0
17 29 0
18 7 0
18 30 0
19 8 0
20 31 0
21 9 0
21 32 0
22 11 0
23 12 0
24 14 0
24 35 0
25 15 0
25 36 0
26 16 0
26 37 0
27 17 0
27 39 0
28 18 0
28 40 0
29 19 0
29 41 0
30 20 0
32 21 0
33 22 0
34 23 0
35 24 0
36 25 0
37 26 0
38 28 0
39 29 0
40 30 0
2 48 49 10000 73
0 13 0
1 14 0
2 15 0
3 16 0
4 17 0
5 18 0
6 19 0
7 20 0
8 21 0
9 22 0
10 23 0
11 24 0
12 25 0
13 0 0
13 26 0
14 1 0
14 27 0
15 2 0
15 28 0
16 3 0
17 4 0
17 29 0
18 5 0
18 30 0
19 6 0
19 31 0
20 7 0
20 32 0
21 8 0
21 33 0
22 9 0
22 34 0
23 10 0
23 35 0
24 11 0
24 36 0
25 12 0
25 37 0
26 13 0
26 38 0
27 14 0
27 39 0
28 15 0
29 16 0
29 40 0
30 17 0
30 41 0
31 18 0
31 42 0
32 19 0
32 43 0
33 20 0
34 21 0
34 44 0
35 22 0
35 45 0
36 23 0
37 24 0
37 46 0
38 25 0
38 47 0
39 26 0
40 27 0
41 28 0
43 29 0
44 30 0
45 31 0
46 32 0
47 33 0
48 34 0
49 35 0
50 36 0
51 37 0
2 50 51 10000 73
0 13 0
1 14 0
2 15 0
3 16 0
4 18 0
5 19 0
6 20 0
7 21 0
8 22 0
9 23 0
10 24 0
11 25 0
12 0 0
12 26 0
13 1 0
13 27 0
14 2 0
14 28 0
15 4 0
15 30 0
16 5 0
16 31 0
17 6 0
17 32 0
18 7 0
18 33 0
19 8 0
19 34 0
20 9 0
20 35 0
21 10 0
21 36 0
22 11 0
22 37 0
23 12 0
23 38 0
24 13 0
24 39 0
25 14 0
25 40 0
26 15 0
26 41 0
27 16 0
27 42 0
28 18 0
28 44 0
29 19 0
29 45 0
30 20 0
30 46 0
31 21 0
31 47 0
32 22 0
32 48 0
33 23 0
33 49 0
34 24 0
34 50 0
35 25 0
35 51 0
36 26 0
37 27 0
38 28 0
39 29 0
40 30 0
41 31 0
42 32 0
43 33 0
44 34 0
45 35 0
46 36 0
47 37 0
48 38 0
2 52 53 10000 71
0 13 0
1 14 0
2 15 0
3 16 0
4 17 0
5 18 0
6 19 0
7 20 0
8 21 0
9 22 0
10 23 0
11 24 0
12 25 0
13 0 0
13 26 0
14 1 0
14 27 0
15 2 0
15 28 0
16 3 0
16 29 0
17 5 0
17 31 0
18 6 0
18 32 0
19 7 0
19 33 0
20 8 0
20 34 0
21 9 0
21 35 0
22 10 0
22 36 0
23 11 0
23 37 0
24 12 0
24 38 0
25 13 0
25 39 0
26 14 0
26 40 0
27 15 0
27 41 0
28 16 0
28 42 0
29 17 0
29 43 0
30 18 0
30 44 0
31 19 0
31 45 0
32 20 0
32 46 0
33 21 0
33 47 0
34 22 0
34 48 0
35 23 0
35 49 0
36 26 0
37 27 0
38 29 0
39 30 0
40 31 0
41 32 0
42 33 0
43 34 0
44 35 0
45 36 0
46 37 0
47 38 0
2 54 55 10000 70
0 10 0
2 11 0
3 12 0
5 13 0
6 14 0
7 15 0
8 16 0
9 18 0
10 19 0
11 20 0
12 0 0
12 21 0
13 1 0
13 22 0
14 2 0
14 23 0
15 3 0
15 24 0
16 25 0
17 4 0
17 26 0
18 5 0
18 27 0
19 28 0
20 6 0
20 29 0
21 7 0
21 30 0
22 8 0
22 31 0
23 9 0
23 32 0
24 33 0
25 10 0
25 34 0
26 35 0
27 11 0
27 36 0
28 12 0
28 37 0
29 38 0
30 13 0
30 39 0
31 14 0
31 40 0
32 15 0
32 41 0
33 16 0
33 42 0
34 17 0
34 43 0
35 18 0
35 44 0
36 19 0
36 45 0
37 20 0
37 46 0
38 21 0
39 22 0
40 23 0
41 24 0
42 25 0
43 26 0
44 27 0
45 28 0
46 29 0
47 30 0
48 31 0
49 32 0
50 33 0
2 56 57 10000 59
0 12 0
1 13 0
2 14 0
3 15 0
4 16 0
5 18 0
6 19 0
7 20 0
8 22 0
9 24 0
10 0 0
10 25 0
11 1 0
11 26 0
12 2 0
12 27 0
13 4 0
13 29 0
14 5 0
14 30 0
15 6 0
15 31 0
16 8 0
16 33 0
17 9 0
17 34 0
18 10 0
18 35 0
19 36 0
20 12 0
20 38 0
21 13 0
21 39 0
22 15 0
22 41 0
23 16 0
23 42 0
24 19 0
24 45 0
25 20 0
25 46 0
26 21 0
26 47 0
27 22 0
27 48 0
28 23 0
28 49 0
29 24 0
29 50 0
30 26 0
31 28 0
32 30 0
33 31 0
34 32 0
35 33 0
36 34 0
37 35 0
38 36 0
39 37 0
2 58 59 10000 62
0 10 0
1 11 0
3 12 0
4 13 0
5 14 0
7 15 0
8 16 0
10 17 0
11 18 0
12 19 0
13 0 0
13 20 0
14 1 0
14 21 0
15 22 0
16 2 0
16 23 0
17 3 0
17 24 0
18 4 0
19 5 0
19 25 0
20 26 0
21 27 0
22 6 0
22 28 0
23 7 0
23 29 0
24 8 0
25 9 0
25 30 0
26 10 0
27 11 0
27 31 0
28 32 0
29 12 0
29 33 0
30 13 0
30 34 0
31 14 0
31 35 0
33 15 0
33 36 0
34 16 0
34 37 0
35 38 0
36 17 0
36 39 0
37 18 0
37 40 0
38 19 0
39 20 0
40 21 0
41 22 0
42 23 0
43 24 0
45 25 0
46 26 0
47 27 0
48 28 0
49 29 0
51 30 0
2 60 61 10000 65
0 12 0
1 14 0
2 15 0
3 16 0
4 17 0
5 18 0
6 19 0
7 20 0
8 22 0
9 24 0
10 0 0
10 25 0
11 26 0
12 1 0
12 27 0
13 3 0
13 29 0
14 5 0
14 31 0
15 7 0
15 33 0
16 8 0
16 34 0
17 9 0
17 35 0
18 10 0
18 36 0
19 11 0
19 37 0
20 12 0
20 38 0
21 13 0
21 39 0
22 14 0
23 15 0
23 40 0
24 16 0
24 41 0
25 17 0
25 42 0
26 18 0
26 43 0
27 19 0
27 44 0
28 21 0
28 46 0
29 22 0
29 47 0
30 23 0
30 48 0
31 24 0
31 49 0
32 25 0
33 26 0
34 27 0
35 28 0
36 29 0
37 30 0
38 31 0
39 32 0
40 33 0
41 34 0
42 35 0
43 36 0
44 37 0
2 62 63 10000 62
0 9 0
1 10 0
2 11 0
3 12 0
4 13 0
5 14 0
6 15 0
7 16 0
8 17 0
9 18 0
10 20 0
11 21 0
12 0 0
12 22 0
13 23 0
14 1 0
15 3 0
15 25 0
16 4 0
18 5 0
18 26 0
19 6 0
19 27 0
21 7 0
21 28 0
22 8 0
22 29 0
23 30 0
24 9 0
25 10 0
25 31 0
26 11 0
26 32 0
27 12 0
27 33 0
28 13 0
28 34 0
29 14 0
29 35 0
30 15 0
30 36 0
31 16 0
31 37 0
32 17 0
32 38 0
33 18 0
33 39 0
34 19 0
34 40 0
35 20 0
35 41 0
36 21 0
36 42 0
37 22 0
38 23 0
40 24 0
41 25 0
44 26 0
45 27 0
47 28 0
48 29 0
49 30 0
2 64 65 10000 56
0 11 0
1 12 0
3 13 0
4 14 0
6 15 0
7 16 0
8 17 0
9 18 0
10 19 0
11 20 0
12 0 0
12 21 0
13 2 0
13 23 0
14 3 0
14 24 0
15 26 0
16 5 0
16 28 0
17 6 0
18 7 0
18 29 0
19 8 0
19 30 0
20 9 0
20 31 0
21 10 0
21 32 0
22 11 0
22 33 0
23 35 0
24 13 0
24 36 0
25 14 0
25 37 0
26 38 0
27 16 0
27 39 0
29 17 0
29 40 0
30 18 0
30 41 0
31 19 0
31 42 0
32 20 0
32 43 0
33 21 0
34 22 0
35 23 0
36 24 0
37 26 0
38 27 0
39 28 0
41 29 0
42 30 0
43 31 0
2 66 67 10000 52
0 13 0
1 14 0
2 15 0
3 16 0
5 18 0
8 19 0
9 20 0
10 21 0
11 0 0
12 1 0
12 23 0
13 2 0
14 3 0
14 24 0
15 4 0
15 25 0
16 6 0
16 27 0
17 8 0
17 29 0
18 9 0
18 30 0
19 10 0
19 31 0
20 11 0
20 32 0
21 14 0
21 35 0
22 15 0
22 36 0
23 16 0
24 37 0
25 17 0
25 38 0
26 18 0
26 39 0
27 40 0
28 41 0
29 19 0
29 42 0
30 20 0
30 43 0
31 22 0
31 45 0
32 23 0
34 25 0
35 26 0
36 27 0
37 28 0
38 29 0
39 30 0
40 32 0
2 68 69 10000 63
0 12 0
1 13 0
2 14 0
3 15 0
4 16 0
5 17 0
6 18 0
7 20 0
8 21 0
9 22 0
12 1 0
12 25 0
13 2 0
13 26 0
14 3 0
14 27 0
15 4 0
15 28 0
16 5 0
16 29 0
17 7 0
17 31 0
18 8 0
19 9 0
19 32 0
20 10 0
20 33 0
21 11 0
21 34 0
22 12 0
23 13 0
23 35 0
24 14 0
24 36 0
25 15 0
26 16 0
26 37 0
27 17 0
27 38 0
28 18 0
28 39 0
29 19 0
29 40 0
30 20 0
30 41 0
31 21 0
31 42 0
32 22 0
32 43 0
33 44 0
34 23 0
34 45 0
36 24 0
37 25 0
38 26 0
39 27 0
40 28 0
41 29 0
42 30 0
43 31 0
45 32 0
46 33 0
47 34 0
2 70 71 10000 65
0 14 0
1 15 0
2 17 0
3 20 0
4 22 0
5 23 0
6 24 0
7 25 0
8 0 0
8 26 0
9 1 0
9 27 0
10 2 0
10 28 0
11 3 0
11 29 0
12 4 0
12 30 0
13 5 0
13 31 0
14 6 0
14 32 0
15 8 0
15 34 0
16 9 0
16 35 0
17 10 0
17 36 0
18 11 0
18 37 0
19 12 0
19 38 0
20 13 0
20 39 0
21 15 0
21 41 0
22 17 0
22 43 0
23 18 0
23 44 0
24 19 0
24 45 0
25 20 0
25 46 0
26 21 0
26 47 0
27 22 0
27 48 0
28 23 0
28 49 0
29 25 0
29 51 0
30 26 0
31 27 0
32 28 0
33 29 0
34 30 0
35 31 0
36 32 0
37 33 0
38 34 0
39 35 0
40 36 0
41 37 0
42 38 0
2 72 73 10000 61
0 11 0
1 12 0
2 13 0
3 14 0
4 15 0
6 16 0
7 17 0
8 18 0
9 19 0
10 20 0
13 0 0
13 21 0
14 1 0
14 22 0
15 2 0
15 23 0
16 3 0
16 24 0
17 4 0
18 5 0
18 25 0
19 6 0
20 7 0
20 26 0
21 8 0
21 27 0
23 9 0
23 28 0
24 10 0
24 29 0
25 30 0
26 11 0
26 31 0
27 12 0
28 13 0
28 32 0
29 14 0
29 33 0
30 15 0
30 34 0
32 16 0
32 35 0
33 17 0
33 36 0
34 18 0
34 37 0
35 19 0
35 38 0
36 20 0
36 39 0
38 40 0
39 21 0
40 22 0
41 23 0
42 24 0
44 25 0
46 26 0
47 27 0
49 28 0
50 29 0
51 30 0
2 74 75 10000 69
0 13 0
1 14 0
2 15 0
3 16 0
4 17 0
5 18 0
6 19 0
7 20 0
8 21 0
9 22 0
10 23 0
12 24 0
13 0 0
13 25 0
14 1 0
14 26 0
15 2 0
15 27 0
16 3 0
16 28 0
17 4 0
17 29 0
18 5 0
18 30 0
19 6 0
19 31 0
20 7 0
20 32 0
21 9 0
21 34 0
22 11 0
23 12 0
23 36 0
24 13 0
24 37 0
25 14 0
25 38 0
26 15 0
26 39 0
27 16 0
27 40 0
28 17 0
28 41 0
29 18 0
29 42 0
30 19 0
30 43 0
31 20 0
31 44 0
32 21 0
32 45 0
33 22 0
33 46 0
34 23 0
34 47 0
35 48 0
36 24 0
36 49 0
37 25 0
38 26 0
39 28 0
40 29 0
41 30 0
42 31 0
43 32 0
44 33 0
45 34 0
46 35 0
48 36 0
2 76 77 10000 46
0 11 0
2 12 0
5 14 0
6 16 0
7 17 0
8 18 0
9 1 0
9 20 0
10 3 0
10 22 0
11 4 0
11 23 0
12 5 0
12 24 0
13 6 0
14 7 0
14 25 0
15 26 0
17 8 0
17 27 0
18 10 0
18 29 0
19 11 0
20 13 0
20 32 0
21 33 0
22 34 0
24 14 0
24 35 0
25 15 0
26 16 0
26 36 0
27 37 0
28 17 0
28 38 0
29 18 0
29 39 0
30 20 0
31 21 0
32 22 0
33 23 0
35 25 0
36 26 0
38 27 0
39 28 0
40 29 0
2 78 79 10000 58
0 11 0
1 12 0
3 13 0
4 14 0
5 15 0
6 16 0
7 18 0
8 21 0
9 22 0
10 0 0
10 23 0
11 1 0
12 2 0
12 24 0
13 26 0
14 3 0
14 27 0
15 4 0
15 28 0
16 6 0
16 30 0
17 7 0
17 31 0
18 8 0
19 9 0
19 32 0
20 10 0
20 33 0
21 11 0
21 34 0
22 12 0
22 35 0
23 36 0
24 13 0
24 37 0
25 14 0
25 38 0
26 15 0
26 39 0
27 16 0
27 40 0
28 17 0
28 41 0
29 18 0
29 42 0
30 19 0
31 20 0
31 43 0
32 21 0
32 44 0
33 23 0
35 26 0
36 27 0
37 28 0
38 29 0
39 30 0
40 31 0
41 32 0
2 80 81 10000 69
0 11 0
1 12 0
2 13 0
3 14 0
4 15 0
5 16 0
6 17 0
7 18 0
9 20 0
10 21 0
11 22 0
12 0 0
12 23 0
13 24 0
14 1 0
14 25 0
15 2 0
15 26 0
16 3 0
16 27 0
17 4 0
17 28 0
18 5 0
18 29 0
19 6 0
19 30 0
20 7 0
20 31 0
21 8 0
22 9 0
23 10 0
23 32 0
24 33 0
25 11 0
25 34 0
26 12 0
26 35 0
27 13 0
27 36 0
28 14 0
28 37 0
29 15 0
29 38 0
30 16 0
30 39 0
31 17 0
31 40 0
32 18 0
32 41 0
33 19 0
33 42 0
34 43 0
35 20 0
35 44 0
36 21 0
36 45 0
37 22 0
37 46 0
38 23 0
39 24 0
40 25 0
41 26 0
42 27 0
43 28 0
44 29 0
45 30 0
46 31 0
49 32 0
50 33 0
2 82 83 10000 51
1 9 0
3 11 0
4 12 0
5 15 0
6 16 0
7 17 0
8 18 0
9 19 0
10 21 0
11 22 0
12 23 0
13 2 0
14 4 0
15 26 0
16 5 0
16 27 0
17 6 0
17 28 0
18 7 0
18 29 0
19 31 0
20 9 0
20 32 0
21 10 0
21 33 0
22 11 0
22 35 0
23 12 0
23 36 0
24 13 0
24 37 0
25 14 0
25 38 0
26 15 0
26 39 0
27 16 0
27 40 0
28 17 0
28 41 0
29 18 0
29 42 0
30 19 0
30 43 0
31 21 0
32 23 0
33 25 0
35 26 0
36 27 0
37 28 0
38 29 0
39 30 0
2 84 85 10000 71
0 13 0
1 14 0
2 15 0
3 16 0
4 17 0
5 18 0
6 19 0
7 20 0
8 21 0
9 22 0
10 23 0
12 24 0
13 0 0
13 25 0
14 1 0
14 26 0
15 2 0
16 3 0
16 27 0
17 4 0
17 28 0
18 5 0
18 29 0
19 6 0
19 30 0
20 7 0
20 31 0
21 8 0
21 32 0
22 9 0
22 33 0
23 10 0
23 34 0
24 11 0
24 35 0
25 12 0
25 36 0
26 13 0
26 37 0
27 14 0
27 38 0
28 15 0
28 39 0
29 16 0
29 40 0
30 17 0
30 41 0
31 18 0
31 42 0
32 19 0
32 43 0
33 20 0
33 44 0
34 21 0
35 22 0
36 23 0
37 45 0
38 24 0
38 46 0
39 25 0
40 26 0
42 27 0
43 28 0
44 29 0
45 30 0
46 31 0
47 32 0
48 33 0
49 34 0
50 35 0
51 36 0
2 86 87 10000 59
0 14 0
1 15 0
2 16 0
3 17 0
4 18 0
5 19 0
6 20 0
7 21 0
8 23 0
9 24 0
10 25 0
11 3 0
11 29 0
12 4 0
12 30 0
13 5 0
13 31 0
14 6 0
14 32 0
15 8 0
15 34 0
16 9 0
16 35 0
17 10 0
17 36 0
18 11 0
18 37 0
19 12 0
19 38 0
20 13 0
20 39 0
21 15 0
21 41 0
22 16 0
22 42 0
23 17 0
23 43 0
24 18 0
24 44 0
25 20 0
25 46 0
26 22 0
26 48 0
27 23 0
27 49 0
28 24 0
28 50 0
29 25 0
30 26 0
31 27 0
32 28 0
33 29 0
34 30 0
35 31 0
36 33 0
37 34 0
38 35 0
39 36 0
40 37 0
2 88 89 10000 58
0 13 0
1 15 0
2 16 0
3 17 0
4 18 0
5 19 0
6 20 0
7 23 0
8 24 0
9 0 0
9 25 0
10 1 0
10 26 0
11 2 0
11 27 0
12 3 0
12 28 0
13 7 0
13 32 0
14 33 0
15 8 0
15 34 0
16 9 0
16 35 0
17 11 0
17 37 0
18 12 0
19 14 0
19 39 0
20 15 0
20 40 0
21 16 0
22 17 0
23 18 0
23 41 0
24 19 0
24 42 0
25 20 0
25 43 0
26 21 0
26 44 0
27 22 0
27 45 0
28 23 0
28 46 0
29 24 0
29 47 0
30 25 0
31 26 0
32 29 0
33 30 0
34 31 0
35 32 0
36 33 0
37 34 0
38 35 0
39 36 0
40 37 0
2 90 91 10000 64
0 11 0
1 12 0
2 13 0
3 14 0
4 15 0
5 16 0
6 17 0
7 18 0
9 19 0
10 20 0
11 21 0
13 0 0
13 22 0
14 1 0
14 23 0
15 24 0
16 2 0
16 25 0
17 3 0
18 4 0
19 5 0
19 26 0
20 6 0
20 27 0
21 7 0
21 28 0
22 8 0
22 29 0
23 9 0
23 30 0
24 10 0
24 31 0
26 11 0
26 32 0
27 12 0
27 33 0
28 13 0
29 14 0
29 34 0
30 15 0
30 35 0
31 16 0
31 36 0
32 17 0
32 37 0
33 18 0
33 38 0
34 39 0
35 19 0
35 40 0
36 20 0
36 41 0
37 21 0
38 42 0
39 22 0
40 23 0
41 24 0
42 25 0
45 26 0
46 27 0
47 28 0
48 29 0
49 30 0
50 31 0
2 92 93 10000 68
0 12 0
1 13 0
2 14 0
3 15 0
4 16 0
5 17 0
6 18 0
7 19 0
8 20 0
9 21 0
10 22 0
11 23 0
13 0 0
14 1 0
14 24 0
15 2 0
15 25 0
16 3 0
16 26 0
17 4 0
17 27 0
18 5 0
18 28 0
19 6 0
19 29 0
21 7 0
21 30 0
22 8 0
22 31 0
23 9 0
24 10 0
24 32 0
25 11 0
25 33 0
26 12 0
26 34 0
27 13 0
27 35 0
28 14 0
29 15 0
29 36 0
30 16 0
30 37 0
31 17 0
31 38 0
32 18 0
32 39 0
33 19 0
33 40 0
34 20 0
34 41 0
35 21 0
35 42 0
36 22 0
36 43 0
37 23 0
37 44 0
38 45 0
40 24 0
41 25 0
42 26 0
43 27 0
44 28 0
45 29 0
47 30 0
48 31 0
50 32 0
51 33 0
2 94 95 10000 45
0 11 0
1 12 0
3 13 0
5 14 0
6 15 0
8 16 0
9 18 0
10 0 0
10 20 0
11 2 0
11 22 0
12 3 0
12 23 0
14 5 0
14 25 0
15 6 0
15 26 0
16 8 0
16 28 0
17 29 0
18 11 0
19 12 0
20 32 0
21 13 0
21 33 0
22 34 0
23 14 0
23 35 0
24 37 0
25 16 0
26 17 0
26 38 0
27 18 0
28 19 0
28 39 0
29 20 0
30 21 0
31 22 0
32 23 0
34 24 0
35 26 0
37 27 0
38 28 0
39 29 0
40 30 0
2 96 97 10000 57
0 13 0
1 15 0
2 16 0
3 17 0
4 18 0
5 19 0
6 20 0
7 21 0
9 23 0
10 0 0
10 25 0
11 2 0
12 3 0
12 27 0
13 4 0
13 28 0
14 7 0
14 31 0
15 8 0
15 32 0
16 9 0
16 33 0
17 10 0
17 34 0
18 11 0
18 35 0
19 12 0
19 36 0
20 13 0
20 37 0
21 14 0
21 38 0
22 15 0
22 39 0
23 16 0
23 40 0
24 17 0
24 41 0
25 18 0
25 42 0
26 19 0
26 43 0
27 22 0
27 46 0
28 24 0
28 49 0
29 26 0
30 27 0
31 28 0
32 29 0
33 30 0
34 31 0
35 32 0
36 33 0
37 34 0
38 35 0
39 36 0
2 98 99 10000 45
0 11 0
1 14 0
3 15 0
5 18 0
7 19 0
8 20 0
9 0 0
10 1 0
10 21 0
11 2 0
12 3 0
13 22 0
14 4 0
14 23 0
15 5 0
15 24 0
16 6 0
16 25 0
17 7 0
17 26 0
18 27 0
19 8 0
19 28 0
20 10 0
20 30 0
21 12 0
21 31 0
22 34 0
23 15 0
24 16 0
25 17 0
25 36 0
26 18 0
26 37 0
27 38 0
28 19 0
28 39 0
29 20 0
33 22 0
34 24 0
35 25 0
36 26 0
37 27 0
38 28 0
39 29 0
2 0 2 1000 0
2 4 76 1000 0
2 4 18 1000 0
2 8 14 1000 0
2 8 84 1000 0
2 10 98 1000 0
2 12 52 1000 0
2 12 30 1000 0
2 12 58 1000 0
2 12 14 1000 0
2 14 54 1000 0
2 16 94 1000 0
2 18 48 1000 0
2 20 88 1000 0
2 22 72 1000 0
2 22 64 1000 0
2 24 92 1000 0
2 26 92 1000 0
2 28 86 1000 0
2 28 68 1000 0
2 28 72 1000 0
2 32 56 1000 0
2 36 94 1000 0
2 38 84 1000 0
2 38 54 1000 0
2 40 72 1000 0
2 40 42 1000 0
2 44 98 1000 0
2 46 60 1000 0
2 46 80 1000 0
2 46 88 1000 0
2 48 90 1000 0
2 48 66 1000 0
2 48 60 1000 0
2 50 92 1000 0
2 60 70 1000 0
2 60 88 1000 0
2 62 80 1000 0
2 64 72 1000 0
2 66 98 1000 0
2 74 78 1000 0
2 80 94 1000 0
2 80 92 1000 0
2 82 84 1000 0
2 84 96 1000 0
2 92 96 1000 0
2 0 3 1000 0
2 4 77 1000 0
2 4 19 1000 0
2 8 15 1000 0
2 8 85 1000 0
2 10 99 1000 0
2 12 53 1000 0
2 12 31 1000 0
2 12 59 1000 0
2 12 15 1000 0
2 14 55 1000 0
2 16 95 1000 0
2 18 49 1000 0
2 20 89 1000 0
2 22 73 1000 0
2 22 65 1000 0
2 24 93 1000 0
2 26 93 1000 0
2 28 87 1000 0
2 28 69 1000 0
2 28 73 1000 0
2 32 57 1000 0
2 36 95 1000 0
2 38 85 1000 0
2 38 55 1000 0
2 40 73 1000 0
2 40 43 1000 0
2 44 99 1000 0
2 46 61 1000 0
2 46 81 1000 0
2 46 89 1000 0
2 48 91 1000 0
2 48 67 1000 0
2 48 61 1000 0
2 50 93 1000 0
2 60 71 1000 0
2 60 89 1000 0
2 62 81 1000 0
2 64 73 1000 0
2 66 99 1000 0
2 74 79 1000 0
2 80 95 1000 0
2 80 93 1000 0
2 82 85 1000 0
2 84 97 1000 0
2 92 97 1000 0
2 1 2 1000 0
2 5 76 1000 0
2 5 18 1000 0
2 9 14 1000 0
2 9 84 1000 0
2 11 98 1000 0
2 13 52 1000 0
2 13 30 1000 0
2 13 58 1000 0
2 13 14 1000 0
2 15 54 1000 0
2 17 94 1000 0
2 19 48 1000 0
2 21 88 1000 0
2 23 72 1000 0
2 23 64 1000 0
2 25 92 1000 0
2 27 92 1000 0
2 29 86 1000 0
2 29 68 1000 0
2 29 72 1000 0
2 33 56 1000 0
2 37 94 1000 0
2 39 84 1000 0
2 39 54 1000 0
2 41 72 1000 0
2 41 42 1000 0
2 45 98 1000 0
2 47 60 1000 0
2 47 80 1000 0
2 47 88 1000 0
2 49 90 1000 0
2 49 66 1000 0
2 49 60 1000 0
2 51 92 1000 0
2 61 70 1000 0
2 61 88 1000 0
2 63 80 1000 0
2 65 72 1000 0
2 67 98 1000 0
2 75 78 1000 0
2 81 94 1000 0
2 81 92 1000 0
2 83 84 1000 0
2 85 96 1000 0
2 93 96 1000 0
2 1 3 1000 0
2 5 77 1000 0
2 5 19 1000 0
2 9 15 1000 0
2 9 85 1000 0
2 11 99 1000 0
2 13 53 1000 0
2 13 31 1000 0
2 13 59 1000 0
2 13 15 1000 0
2 15 55 1000 0
2 17 95 1000 0
2 19 49 1000 0
2 21 89 1000 0
2 23 73 1000 0
2 23 65 1000 0
2 25 93 1000 0
2 27 93 1000 0
2 29 87 1000 0
2 29 69 1000 0
2 29 73 1000 0
2 33 57 1000 0
2 37 95 1000 0
2 39 85 1000 0
2 39 55 1000 0
2 41 73 1000 0
2 41 43 1000 0
2 45 99 1000 0
2 47 61 1000 0
2 47 81 1000 0
2 47 89 1000 0
2 49 91 1000 0
2 49 67 1000 0
2 49 61 1000 0
2 51 93 1000 0
2 61 71 1000 0
2 61 89 1000 0
2 63 81 1000 0
2 65 73 1000 0
2 67 99 1000 0
2 75 79 1000 0
2 81 95 1000 0
2 81 93 1000 0
2 83 85 1000 0
2 85 97 1000 0
2 93 97 1000 0
2 0 37 1000 38
0 1 0
1 3 0
2 5 0
3 6 0
4 8 0
5 9 0
7 10 0
8 11 0
9 12 0
10 13 0
11 14 0
13 16 0
14 17 0
15 19 0
16 20 0
17 21 0
18 22 0
19 23 0
20 24 0
21 25 0
22 26 0
23 27 0
24 28 0
25 29 0
26 30 0
27 32 0
28 33 0
29 35 0
30 36 0
31 37 0
32 38 0
33 41 0
34 42 0
35 43 0
36 44 0
37 45 0
38 46 0
39 48 0
2 0 33 1000 35
0 1 0
1 3 0
2 5 0
4 7 0
5 8 0
6 9 0
7 10 0
9 11 0
10 12 0
11 13 0
12 15 0
13 16 0
14 17 0
15 19 0
16 20 0
17 21 0
18 22 0
19 23 0
20 24 0
21 26 0
22 27 0
23 28 0
25 29 0
26 30 0
27 32 0
28 33 0
29 35 0
30 36 0
31 37 0
33 40 0
35 41 0
36 42 0
37 43 0
38 44 0
39 46 0
2 4 71 1000 42
0 0 0
1 1 0
2 2 0
3 3 0
4 6 0
5 8 0
6 9 0
7 11 0
8 12 0
9 14 0
10 15 0
11 16 0
12 17 0
13 18 0
14 19 0
15 20 0
16 22 0
17 23 0
18 24 0
19 25 0
20 26 0
21 27 0
22 28 0
23 29 0
24 30 0
25 32 0
26 33 0
27 34 0
28 35 0
29 36 0
30 37 0
31 38 0
32 39 0
33 42 0
34 43 0
35 44 0
36 45 0
37 46 0
38 48 0
39 49 0
40 50 0
41 51 0
2 6 9 1000 41
0 0 0
1 1 0
2 2 0
3 5 0
4 6 0
5 7 0
6 8 0
7 9 0
8 10 0
9 11 0
10 12 0
11 13 0
12 14 0
13 15 0
14 16 0
15 18 0
16 20 0
17 21 0
18 22 0
19 23 0
20 25 0
21 27 0
22 28 0
23 29 0
24 30 0
25 31 0
26 32 0
27 34 0
28 35 0
29 36 0
30 37 0
31 38 0
32 39 0
34 41 0
35 43 0
36 44 0
37 45 0
38 46 0
39 47 0
40 48 0
41 49 0
2 6 85 1000 38
0 0 0
1 1 0
2 2 0
3 5 0
4 6 0
5 7 0
6 8 0
7 9 0
8 10 0
9 11 0
10 12 0
11 13 0
12 14 0
13 15 0
14 16 0
15 18 0
16 20 0
17 21 0
18 22 0
19 23 0
20 24 0
21 26 0
23 27 0
24 28 0
25 29 0
26 30 0
27 32 0
28 33 0
29 34 0
30 35 0
31 36 0
32 37 0
33 39 0
34 40 0
35 43 0
36 44 0
40 45 0
41 46 0
2 6 93 1000 38
0 0 0
1 1 0
2 2 0
3 5 0
4 6 0
6 7 0
7 8 0
8 9 0
9 10 0
10 11 0
11 12 0
12 13 0
13 14 0
14 15 0
15 17 0
16 19 0
17 20 0
18 21 0
19 22 0
21 24 0
22 25 0
23 26 0
24 27 0
25 28 0
26 29 0
27 30 0
28 31 0
30 32 0
31 33 0
32 34 0
34 36 0
35 39 0
36 40 0
37 41 0
38 42 0
39 43 0
40 44 0
41 45 0
2 18 91 1000 43
0 0 0
1 1 0
3 2 0
4 3 0
5 4 0
6 5 0
7 6 0
8 7 0
9 8 0
10 9 0
11 10 0
13 11 0
14 12 0
15 13 0
16 14 0
17 15 0
18 16 0
19 17 0
20 18 0
22 19 0
23 20 0
24 21 0
26 22 0
27 23 0
28 24 0
29 25 0
32 26 0
33 27 0
34 28 0
35 29 0
36 30 0
37 31 0
39 32 0
40 33 0
42 34 0
43 35 0
44 36 0
45 37 0
46 38 0
47 39 0
48 40 0
49 41 0
51 42 0
2 24 35 1000 43
0 0 0
1 1 0
2 2 0
4 3 0
5 4 0
6 5 0
7 6 0
8 7 0
9 8 0
10 9 0
11 10 0
12 11 0
13 12 0
14 13 0
15 14 0
16 15 0
17 16 0
18 18 0
19 19 0
20 20 0
22 21 0
23 22 0
24 23 0
25 24 0
26 25 0
27 26 0
28 27 0
29 28 0
30 29 0
31 31 0
32 32 0
33 33 0
34 34 0
36 35 0
38 36 0
40 37 0
41 38 0
42 39 0
43 40 0
44 42 0
45 43 0
46 44 0
47 45 0
2 40 89 1000 37
0 0 0
1 2 0
2 4 0
3 5 0
4 6 0
5 7 0
7 8 0
8 9 0
9 10 0
10 11 0
11 12 0
12 15 0
13 16 0
14 17 0
15 19 0
16 20 0
17 21 0
18 22 0
19 23 0
20 24 0
21 25 0
22 26 0
23 27 0
24 28 0
25 29 0
26 30 0
27 33 0
28 34 0
29 35 0
30 36 0
31 37 0
33 38 0
34 40 0
36 41 0
37 43 0
38 44 0
39 45 0
2 42 95 1000 40
0 0 0
1 1 0
2 2 0
3 3 0
5 4 0
6 5 0
7 6 0
8 7 0
10 8 0
12 9 0
13 10 0
14 11 0
15 12 0
17 13 0
19 14 0
20 15 0
22 16 0
23 17 0
24 18 0
25 19 0
26 20 0
27 21 0
28 22 0
29 23 0
31 24 0
32 25 0
33 26 0
35 27 0
36 28 0
37 29 0
38 30 0
39 31 0
42 32 0
43 33 0
44 34 0
45 35 0
46 36 0
47 37 0
49 38 0
51 39 0
2 74 77 1000 38
0 0 0
1 1 0
2 2 0
3 3 0
4 4 0
5 5 0
6 6 0
7 7 0
10 8 0
11 9 0
12 10 0
13 11 0
15 12 0
16 13 0
20 14 0
21 16 0
22 17 0
23 18 0
24 19 0
25 20 0
26 21 0
27 22 0
28 23 0
29 24 0
31 25 0
32 26 0
34 27 0
35 28 0
36 29 0
38 30 0
39 32 0
40 33 0
41 34 0
43 35 0
45 36 0
46 37 0
47 38 0
48 39 0
2 74 81 1000 44
0 0 0
2 1 0
3 2 0
4 3 0
5 4 0
6 5 0
7 6 0
8 7 0
9 8 0
10 9 0
11 10 0
13 11 0
14 12 0
15 13 0
16 14 0
17 15 0
18 16 0
19 17 0
20 18 0
22 21 0
23 22 0
24 23 0
25 24 0
26 25 0
27 26 0
28 27 0
29 28 0
30 29 0
31 30 0
32 31 0
35 32 0
36 33 0
37 34 0
38 35 0
39 37 0
40 38 0
41 39 0
42 40 0
43 41 0
44 42 0
45 43 0
46 44 0
47 45 0
48 46 0
2 92 95 1000 40
0 0 0
1 1 0
2 2 0
3 3 0
5 4 0
6 5 0
7 6 0
8 7 0
10 8 0
12 9 0
13 10 0
14 11 0
15 12 0
17 13 0
19 14 0
20 15 0
22 16 0
23 17 0
24 18 0
25 19 0
26 20 0
27 21 0
28 22 0
29 23 0
31 24 0
32 25 0
33 26 0
35 27 0
36 28 0
37 29 0
38 30 0
39 31 0
42 32 0
43 33 0
44 34 0
45 35 0
46 36 0
47 37 0
49 38 0
51 39 0
2 1 36 1000 38
0 0 0
1 2 0
2 3 0
3 4 0
4 5 0
5 6 0
6 7 0
7 8 0
8 9 0
9 10 0
10 11 0
12 12 0
13 13 0
14 14 0
15 15 0
17 16 0
18 18 0
19 20 0
20 21 0
21 22 0
23 23 0
25 24 0
26 25 0
27 26 0
28 27 0
29 28 0
31 29 0
32 30 0
34 31 0
35 32 0
36 33 0
37 35 0
39 36 0
40 37 0
42 38 0
43 39 0
44 40 0
47 41 0
2 1 32 1000 40
0 0 0
1 2 0
2 3 0
3 4 0
4 5 0
5 6 0
6 7 0
7 8 0
8 9 0
10 10 0
12 11 0
13 12 0
14 13 0
15 14 0
16 15 0
17 16 0
19 19 0
20 20 0
22 21 0
23 22 0
24 23 0
25 24 0
27 25 0
29 26 0
30 27 0
31 28 0
32 29 0
33 30 0
34 31 0
35 32 0
36 33 0
37 34 0
38 35 0
39 36 0
41 37 0
42 38 0
43 39 0
44 40 0
45 41 0
46 42 0
2 5 70 1000 38
0 0 0
1 1 0
3 2 0
6 3 0
8 4 0
9 5 0
10 6 0
11 7 0
12 8 0
13 9 0
14 10 0
15 11 0
16 12 0
17 13 0
18 14 0
20 15 0
21 16 0
22 17 0
23 18 0
24 19 0
25 20 0
27 21 0
29 22 0
30 23 0
31 24 0
32 25 0
33 26 0
34 27 0
35 29 0
36 30 0
37 31 0
38 34 0
39 35 0
40 37 0
41 38 0
42 39 0
43 40 0
44 42 0
2 7 8 1000 38
0 0 0
1 1 0
2 2 0
4 3 0
5 4 0
6 5 0
8 6 0
9 7 0
10 8 0
11 11 0
12 12 0
13 15 0
15 16 0
16 19 0
17 20 0
18 21 0
19 23 0
20 25 0
21 26 0
22 27 0
23 28 0
24 29 0
25 30 0
26 31 0
27 32 0
28 33 0
29 34 0
30 35 0
32 36 0
33 38 0
34 39 0
35 40 0
36 41 0
37 42 0
38 43 0
39 44 0
40 45 0
41 46 0
2 7 84 1000 43
0 0 0
1 1 0
2 2 0
3 3 0
4 4 0
5 5 0
6 6 0
7 7 0
8 8 0
9 9 0
10 10 0
11 13 0
12 14 0
13 17 0
14 18 0
15 19 0
16 22 0
17 23 0
18 24 0
19 26 0
20 28 0
21 29 0
22 30 0
23 31 0
24 32 0
25 33 0
26 34 0
27 35 0
28 36 0
29 37 0
30 38 0
31 39 0
32 40 0
33 42 0
34 43 0
35 44 0
36 45 0
37 46 0
38 47 0
39 48 0
40 49 0
41 50 0
42 51 0
2 7 92 1000 43
0 0 0
1 1 0
2 2 0
3 3 0
4 4 0
5 5 0
6 6 0
7 7 0
8 8 0
9 9 0
10 10 0
11 13 0
12 14 0
13 17 0
14 18 0
15 19 0
16 22 0
17 23 0
18 24 0
19 26 0
20 28 0
21 29 0
22 30 0
23 31 0
24 32 0
25 33 0
26 34 0
27 35 0
28 36 0
29 37 0
30 38 0
31 39 0
32 40 0
33 42 0
34 43 0
35 44 0
36 45 0
37 46 0
38 47 0
39 48 0
40 49 0
41 50 0
42 51 0
2 19 90 1000 40
0 0 0
1 1 0
2 2 0
3 3 0
4 5 0
5 7 0
6 8 0
7 9 0
8 11 0
9 12 0
10 13 0
11 14 0
12 15 0
13 17 0
14 18 0
15 19 0
16 22 0
17 24 0
18 25 0
19 27 0
20 28 0
21 29 0
22 30 0
23 31 0
24 33 0
25 34 0
26 35 0
27 36 0
28 37 0
29 39 0
30 40 0
31 42 0
32 43 0
33 44 0
34 45 0
35 46 0
36 47 0
37 49 0
38 50 0
39 51 0
2 25 34 1000 39
0 0 0
1 1 0
2 2 0
3 3 0
7 4 0
8 5 0
10 6 0
12 7 0
13 8 0
14 9 0
15 10 0
16 11 0
18 12 0
19 13 0
21 14 0
22 15 0
23 16 0
24 17 0
25 18 0
27 19 0
29 20 0
30 21 0
31 22 0
32 23 0
33 24 0
34 25 0
35 26 0
36 27 0
37 28 0
38 29 0
39 30 0
40 31 0
42 32 0
43 33 0
44 34 0
46 36 0
47 37 0
48 38 0
49 39 0
2 41 88 1000 34
0 0 0
2 1 0
3 2 0
4 3 0
5 5 0
6 6 0
8 7 0
9 8 0
10 9 0
11 10 0
12 11 0
13 12 0
16 14 0
17 16 0
19 17 0
21 19 0
22 20 0
23 22 0
24 23 0
25 24 0
26 25 0
27 26 0
28 27 0
29 28 0
30 29 0
31 30 0
33 32 0
34 33 0
35 34 0
36 35 0
37 37 0
38 38 0
39 39 0
40 40 0
2 43 94 1000 35
0 0 0
1 1 0
2 2 0
3 3 0
4 5 0
5 6 0
6 7 0
7 8 0
9 9 0
11 11 0
12 12 0
13 13 0
15 14 0
16 15 0
19 16 0
22 18 0
23 19 0
24 20 0
25 21 0
26 23 0
28 24 0
29 26 0
30 27 0
31 28 0
32 29 0
33 30 0
34 31 0
35 32 0
36 33 0
37 34 0
39 35 0
40 36 0
41 37 0
42 38 0
43 40 0
2 75 76 1000 40
0 0 0
1 1 0
2 2 0
4 3 0
5 4 0
7 5 0
9 6 0
11 7 0
12 8 0
14 9 0
16 10 0
17 11 0
18 12 0
19 13 0
20 14 0
21 15 0
22 16 0
23 17 0
24 18 0
25 19 0
28 20 0
29 21 0
30 22 0
31 23 0
32 24 0
33 25 0
34 26 0
35 27 0
36 29 0
38 30 0
39 31 0
40 32 0
41 33 0
43 34 0
44 35 0
45 36 0
46 37 0
47 38 0
48 39 0
49 40 0
2 75 80 1000 49
0 0 0
1 1 0
2 2 0
3 3 0
4 4 0
5 5 0
6 6 0
7 7 0
9 8 0
10 9 0
11 10 0
12 11 0
13 12 0
14 13 0
15 14 0
16 15 0
17 16 0
18 17 0
19 18 0
20 19 0
21 20 0
22 21 0
23 22 0
24 24 0
25 25 0
26 26 0
27 27 0
28 28 0
29 29 0
30 30 0
31 31 0
32 32 0
33 33 0
34 34 0
35 35 0
36 37 0
37 38 0
38 39 0
39 40 0
40 41 0
41 42 0
42 43 0
43 44 0
44 45 0
45 46 0
46 47 0
47 48 0
48 49 0
49 50 0
2 93 94 1000 38
1 0 0
2 1 0
3 2 0
4 3 0
5 4 0
6 5 0
7 7 0
8 8 0
10 9 0
12 10 0
14 11 0
15 12 0
16 13 0
18 14 0
19 15 0
22 16 0
23 17 0
24 18 0
25 19 0
26 20 0
27 21 0
28 22 0
29 23 0
30 24 0
31 25 0
32 27 0
33 28 0
34 29 0
35 30 0
36 32 0
37 33 0
38 34 0
40 35 0
41 36 0
42 37 0
43 38 0
44 39 0
45 40 0
